NAME : tsp30_12.195.tour
COMMENT : Length = 195
COMMENT : Found by LKH [Keld Helsgaun]
TYPE : TOUR
DIMENSION : 30
TOUR_SECTION
1
11
23
10
13
17
26
12
7
3
16
21
6
27
22
14
19
2
25
28
18
20
9
29
8
15
5
24
4
30
-1
EOF
